
Log started (V11.0.0) Fri May 16 19:02:53 2008

Tried aggregator 1 time.
Reduced MIP has 250 rows, 10001 columns, and 20050 nonzeros.
Presolve time =    0.09 sec.
Clique table members: 200.
MIP emphasis: balance optimality and feasibility.
MIP search method: dynamic search.
Parallel mode: none, using 1 thread.
Root relaxation solution time =    0.52 sec.

        Nodes                                         Cuts/
   Node  Left     Objective  IInf  Best Integer     Best Node    ItCnt     Gap

*     0+    0                         5432.0000       94.1491      742   98.27%
*     0+    0                          194.0000       94.1491      742   51.47%
      0     0       95.0000    78      194.0000      Fract: 5      756   51.03%
*     0+    0                          135.0000       95.0000      756   29.63%
      0     0       95.0000    79      135.0000       Cuts: 4     1072   29.63%
*     0+    0                          134.0000       95.0000     1072   29.10%
      0     0       95.4172   100      134.0000      Cuts: 11     1281   28.79%
*     0+    0                          129.0000       95.4172     1281   26.03%
      0     0       98.3321    92      129.0000      Cuts: 32     1802   23.77%
*     0+    0                          128.0000       98.3321     1802   23.18%
      0     0       98.5056    97      128.0000      Cuts: 23     1860   23.04%
*     0+    0                          125.0000       98.5056     1860   21.20%
      0     0       98.6874    91      125.0000      Cuts: 19     1994   21.05%
*     0+    0                          119.0000       98.6874     1994   17.07%
      0     0       98.8168    85      119.0000      Cuts: 11     2047   16.96%
*     0+    0                          115.0000       98.8168     2047   14.07%
      0     0       98.9131    89      115.0000       Cuts: 7     2067   13.99%
      0     0       99.0139    85      115.0000       Cuts: 9     2122   13.90%
      0     0       99.0139    87      115.0000       Cuts: 4     2128   13.90%
*     0+    0                          112.0000       99.0139     2128   11.59%
*     0+    0                          111.0000       99.0139     2128   10.80%
*     0+    0                          110.0000       99.0139     2128    9.99%
*     0+    0                          106.0000       99.0139     2128    6.59%
      0     2       99.0139    87      106.0000       99.0139     2128    6.59%
    100   101      100.0000    52      106.0000      100.0000     2813    5.66%
*   110+  103                          105.0000      100.0000     2866    4.76%
    200   184      101.0000    42      105.0000      100.0000     5040    4.76%
    300   270      102.0000    26      105.0000      100.0000     6973    4.76%
    400   358      103.0000    29      105.0000      100.0000     8531    4.76%
    500   422      100.0000    46      105.0000      100.0000    15592    4.76%
*   506+  282                          103.0000      101.0000    18593    1.94%
    600   305      102.0000    25      103.0000      101.0000    20465    1.94%
    700   332      102.0000    40      103.0000      101.0000    23112    1.94%
    800   346      102.0000    46      103.0000      101.0000    27271    1.94%
    900   329      102.0000    32      103.0000      101.0000    30845    1.94%
   1000   398      102.0000    27      103.0000      101.0000    33451    1.94%
Elapsed time =  55.06 sec. (tree size =  2.78 MB, solutions = 15)
   1100   482      102.0000    45      103.0000      101.0000    36698    1.94%
   1200   505    infeasible            103.0000      101.0000    42317    1.94%
   1300   509      102.0000    57      103.0000      101.0000    45294    1.94%
   1400   526      102.0000    46      103.0000      101.0000    50542    1.94%
   1500   528      102.0000    52      103.0000      101.0000    56860    1.94%
*  1506+   83                          102.0000      101.0000    57111    0.98%

Clique cuts applied:  2
Cover cuts applied:  110
Implied bound cuts applied:  15
Mixed integer rounding cuts applied:  21
Zero-half cuts applied:  4

Solution pool: 16 solutions saved.

MIP - Integer optimal solution:  Objective = 1.0200000000e+002
Solution time =   83.09 sec.  Iterations = 115377  Nodes = 1590


Incumbent solution
Variable Name           Solution Value
Cmax                        102.000000
X_1_5                         1.000000
X_2_8                         1.000000
X_3_27                        1.000000
X_4_32                        1.000000
X_5_24                        1.000000
X_6_17                        1.000000
X_7_38                        1.000000
X_8_25                        1.000000
X_9_44                        1.000000
X_10_41                       1.000000
X_11_48                       1.000000
X_12_43                       1.000000
X_13_20                       1.000000
X_14_6                        1.000000
X_15_41                       1.000000
X_16_24                       1.000000
X_17_7                        1.000000
X_18_6                        1.000000
X_19_24                       1.000000
X_20_49                       1.000000
X_21_42                       1.000000
X_22_39                       1.000000
X_23_31                       1.000000
X_24_6                        1.000000
X_25_45                       1.000000
X_26_41                       1.000000
X_27_24                       1.000000
X_28_24                       1.000000
X_29_14                       1.000000
X_30_18                       1.000000
X_31_41                       1.000000
X_32_43                       1.000000
X_33_42                       1.000000
X_34_43                       1.000000
X_35_24                       1.000000
X_36_6                        1.000000
X_37_41                       1.000000
X_38_22                       1.000000
X_39_16                       1.000000
X_40_27                       1.000000
X_41_29                       1.000000
X_42_47                       1.000000
X_43_3                        1.000000
X_44_40                       1.000000
X_45_24                       1.000000
X_46_27                       1.000000
X_47_36                       1.000000
X_48_47                       1.000000
X_49_32                       1.000000
X_50_11                       1.000000
X_51_9                        1.000000
X_52_18                       1.000000
X_53_24                       1.000000
X_54_41                       1.000000
X_55_6                        1.000000
X_56_24                       1.000000
X_57_41                       1.000000
X_58_34                       1.000000
X_59_41                       1.000000
X_60_42                       1.000000
X_61_48                       1.000000
X_62_41                       1.000000
X_63_34                       1.000000
X_64_12                       1.000000
X_65_3                        1.000000
X_66_41                       1.000000
X_67_24                       1.000000
X_68_41                       1.000000
X_69_13                       1.000000
X_70_5                        1.000000
X_71_43                       1.000000
X_72_41                       1.000000
X_73_27                       1.000000
X_74_28                       1.000000
X_75_29                       1.000000
X_76_24                       1.000000
X_77_41                       1.000000
X_78_6                        1.000000
X_79_47                       1.000000
X_80_5                        1.000000
X_81_23                       1.000000
X_82_32                       1.000000
X_83_43                       1.000000
X_84_19                       1.000000
X_85_27                       1.000000
X_86_41                       1.000000
X_87_3                        1.000000
X_88_27                       1.000000
X_89_6                        1.000000
X_90_2                        1.000000
X_91_1                        1.000000
X_92_34                       1.000000
X_93_43                       1.000000
X_94_50                       1.000000
X_95_42                       1.000000
X_96_30                       1.000000
X_97_29                       1.000000
X_98_33                       1.000000
X_99_24                       1.000000
X_100_43                      1.000000
X_101_40                      1.000000
X_102_6                       1.000000
X_103_24                      1.000000
X_104_39                      1.000000
X_105_4                       1.000000
X_106_43                      1.000000
X_107_47                      1.000000
X_108_26                      1.000000
X_109_16                      1.000000
X_110_24                      1.000000
X_111_27                      1.000000
X_112_15                      1.000000
X_113_6                       1.000000
X_114_34                      1.000000
X_115_24                      1.000000
X_116_24                      1.000000
X_117_32                      1.000000
X_118_38                      1.000000
X_119_36                      1.000000
X_120_34                      1.000000
X_121_24                      1.000000
X_122_43                      1.000000
X_123_43                      1.000000
X_124_18                      1.000000
X_125_27                      1.000000
X_126_47                      1.000000
X_127_26                      1.000000
X_128_41                      1.000000
X_129_6                       1.000000
X_130_6                       1.000000
X_131_41                      1.000000
X_132_24                      1.000000
X_133_41                      1.000000
X_134_26                      1.000000
X_135_24                      1.000000
X_136_42                      1.000000
X_137_34                      1.000000
X_138_3                       1.000000
X_139_34                      1.000000
X_140_41                      1.000000
X_141_41                      1.000000
X_142_24                      1.000000
X_143_47                      1.000000
X_144_6                       1.000000
X_145_10                      1.000000
X_146_6                       1.000000
X_147_27                      1.000000
X_148_50                      1.000000
X_149_36                      1.000000
X_150_24                      1.000000
X_151_41                      1.000000
X_152_32                      1.000000
X_153_41                      1.000000
X_154_4                       1.000000
X_155_4                       1.000000
X_156_46                      1.000000
X_157_24                      1.000000
X_158_6                       1.000000
X_159_24                      1.000000
X_160_29                      1.000000
X_161_4                       1.000000
X_162_48                      1.000000
X_163_41                      1.000000
X_164_27                      1.000000
X_165_24                      1.000000
X_166_42                      1.000000
X_167_2                       1.000000
X_168_43                      1.000000
X_169_27                      1.000000
X_170_6                       1.000000
X_171_26                      1.000000
X_172_4                       1.000000
X_173_42                      1.000000
X_174_6                       1.000000
X_175_34                      1.000000
X_176_21                      1.000000
X_177_50                      1.000000
X_178_27                      1.000000
X_179_37                      1.000000
X_180_35                      1.000000
X_181_38                      1.000000
X_182_41                      1.000000
X_183_24                      1.000000
X_184_24                      1.000000
X_185_6                       1.000000
X_186_6                       1.000000
X_187_4                       1.000000
X_188_50                      1.000000
X_189_44                      1.000000
X_190_27                      1.000000
X_191_32                      1.000000
X_192_41                      1.000000
X_193_50                      1.000000
X_194_6                       1.000000
X_195_4                       1.000000
X_196_6                       1.000000
X_197_32                      1.000000
X_198_6                       1.000000
X_199_48                      1.000000
X_200_39                      1.000000
All other variables in the range 1-10001 are 0.
